04_frontend_stage/rtl-sys_ctrl/formal/sys_ctrl/model/design_smt2.smt2
; SMT-LIBv2 description generated by Yosys 0.65+71 (git sha1 e56c6a954, clang++ 18.1.8 -fPIC -O3)
; yosys-smt2-module sys_ctrl
(declare-sort |sys_ctrl_s| 0)
(declare-fun |sys_ctrl_is| (|sys_ctrl_s|) Bool)
; yosys-smt2-anyinit sys_ctrl#0 8 sys_ctrl.v:57.5-102.8
; yosys-smt2-witness {"offset": 0, "path": ["\\_witness_", "\\anyinit_procdff_141"], "smtname": 0, "smtoffset": 0, "type": "init", "width": 8}
(declare-fun |sys_ctrl#0| (|sys_ctrl_s|) (_ BitVec 8)) ; \_witness_.anyinit_procdff_141
; yosys-smt2-register _witness_.anyinit_procdff_141 8
; yosys-smt2-wire _witness_.anyinit_procdff_141 8
(define-fun |sys_ctrl_n _witness_.anyinit_procdff_141| ((state |sys_ctrl_s|)) (_ BitVec 8) (|sys_ctrl#0| state))
; yosys-smt2-anyinit sys_ctrl#1 3 sys_ctrl.v:57.5-102.8
; yosys-smt2-witness {"offset": 0, "path": ["\\_witness_", "\\anyinit_procdff_146"], "smtname": 1, "smtoffset": 0, "type": "init", "width": 3}
(declare-fun |sys_ctrl#1| (|sys_ctrl_s|) (_ BitVec 3)) ; \_witness_.anyinit_procdff_146
; yosys-smt2-register _witness_.anyinit_procdff_146 3
; yosys-smt2-wire _witness_.anyinit_procdff_146 3
(define-fun |sys_ctrl_n _witness_.anyinit_procdff_146| ((state |sys_ctrl_s|)) (_ BitVec 3) (|sys_ctrl#1| state))
; yosys-smt2-anyinit sys_ctrl#2 8 sys_ctrl.v:57.5-102.8
; yosys-smt2-witness {"offset": 0, "path": ["\\_witness_", "\\anyinit_procdff_151"], "smtname": 2, "smtoffset": 0, "type": "init", "width": 8}
(declare-fun |sys_ctrl#2| (|sys_ctrl_s|) (_ BitVec 8)) ; \_witness_.anyinit_procdff_151
; yosys-smt2-register _witness_.anyinit_procdff_151 8
; yosys-smt2-wire _witness_.anyinit_procdff_151 8
(define-fun |sys_ctrl_n _witness_.anyinit_procdff_151| ((state |sys_ctrl_s|)) (_ BitVec 8) (|sys_ctrl#2| state))
; yosys-smt2-anyinit sys_ctrl#3 4 sys_ctrl.v:57.5-102.8
; yosys-smt2-witness {"offset": 0, "path": ["\\_witness_", "\\anyinit_procdff_156"], "smtname": 3, "smtoffset": 0, "type": "init", "width": 4}
(declare-fun |sys_ctrl#3| (|sys_ctrl_s|) (_ BitVec 4)) ; \_witness_.anyinit_procdff_156
; yosys-smt2-register _witness_.anyinit_procdff_156 4
; yosys-smt2-wire _witness_.anyinit_procdff_156 4
(define-fun |sys_ctrl_n _witness_.anyinit_procdff_156| ((state |sys_ctrl_s|)) (_ BitVec 4) (|sys_ctrl#3| state))
; yosys-smt2-anyinit sys_ctrl#4 1 sys_ctrl.v:57.5-102.8
; yosys-smt2-witness {"offset": 0, "path": ["\\_witness_", "\\anyinit_procdff_161"], "smtname": 4, "smtoffset": 0, "type": "init", "width": 1}
(declare-fun |sys_ctrl#4| (|sys_ctrl_s|) (_ BitVec 1)) ; \_witness_.anyinit_procdff_161
; yosys-smt2-register _witness_.anyinit_procdff_161 1
; yosys-smt2-wire _witness_.anyinit_procdff_161 1
(define-fun |sys_ctrl_n _witness_.anyinit_procdff_161| ((state |sys_ctrl_s|)) Bool (= ((_ extract 0 0) (|sys_ctrl#4| state)) #b1))
; yosys-smt2-anyinit sys_ctrl#5 1 sys_ctrl.v:57.5-102.8
; yosys-smt2-witness {"offset": 0, "path": ["\\_witness_", "\\anyinit_procdff_166"], "smtname": 5, "smtoffset": 0, "type": "init", "width": 1}
(declare-fun |sys_ctrl#5| (|sys_ctrl_s|) (_ BitVec 1)) ; \_witness_.anyinit_procdff_166
; yosys-smt2-register _witness_.anyinit_procdff_166 1
; yosys-smt2-wire _witness_.anyinit_procdff_166 1
(define-fun |sys_ctrl_n _witness_.anyinit_procdff_166| ((state |sys_ctrl_s|)) Bool (= ((_ extract 0 0) (|sys_ctrl#5| state)) #b1))
; yosys-smt2-anyinit sys_ctrl#6 1 sys_ctrl.v:57.5-102.8
; yosys-smt2-witness {"offset": 0, "path": ["\\_witness_", "\\anyinit_procdff_171"], "smtname": 6, "smtoffset": 0, "type": "init", "width": 1}
(declare-fun |sys_ctrl#6| (|sys_ctrl_s|) (_ BitVec 1)) ; \_witness_.anyinit_procdff_171
; yosys-smt2-register _witness_.anyinit_procdff_171 1
; yosys-smt2-wire _witness_.anyinit_procdff_171 1
(define-fun |sys_ctrl_n _witness_.anyinit_procdff_171| ((state |sys_ctrl_s|)) Bool (= ((_ extract 0 0) (|sys_ctrl#6| state)) #b1))
(declare-fun |sys_ctrl#7| (|sys_ctrl_s|) Bool) ; \psel
(declare-fun |sys_ctrl#8| (|sys_ctrl_s|) Bool) ; \penable
(define-fun |sys_ctrl#9| ((state |sys_ctrl_s|)) Bool (and (or  (|sys_ctrl#7| state) false) (or  (|sys_ctrl#8| state) false))) ; $logic_and$sys_ctrl.v:47$1_Y
(declare-fun |sys_ctrl#10| (|sys_ctrl_s|) Bool) ; \pwrite
(define-fun |sys_ctrl#11| ((state |sys_ctrl_s|)) Bool (not (or  (|sys_ctrl#10| state) false))) ; $logic_not$sys_ctrl.v:48$4_Y
(define-fun |sys_ctrl#12| ((state |sys_ctrl_s|)) Bool (and (or  (|sys_ctrl#9| state) false) (or  (|sys_ctrl#11| state) false))) ; \apb_read
; yosys-smt2-wire apb_read 1
(define-fun |sys_ctrl_n apb_read| ((state |sys_ctrl_s|)) Bool (|sys_ctrl#12| state))
(define-fun |sys_ctrl#13| ((state |sys_ctrl_s|)) Bool (and (or  (|sys_ctrl#9| state) false) (or  (|sys_ctrl#10| state) false))) ; \apb_write
; yosys-smt2-wire apb_write 1
(define-fun |sys_ctrl_n apb_write| ((state |sys_ctrl_s|)) Bool (|sys_ctrl#13| state))
(declare-fun |sys_ctrl#14| (|sys_ctrl_s|) (_ BitVec 1)) ; \rst_ni
(define-fun |sys_ctrl#15| ((state |sys_ctrl_s|)) (_ BitVec 1) (ite (= ((_ extract 0 0) (|sys_ctrl#14| state)) #b1) (|sys_ctrl#6| state) #b0)) ; \cause_captured
; yosys-smt2-wire cause_captured 1
(define-fun |sys_ctrl_n cause_captured| ((state |sys_ctrl_s|)) Bool (= ((_ extract 0 0) (|sys_ctrl#15| state)) #b1))
(define-fun |sys_ctrl#16| ((state |sys_ctrl_s|)) (_ BitVec 8) (ite (= ((_ extract 0 0) (|sys_ctrl#14| state)) #b1) (|sys_ctrl#0| state) #b00000001)) ; \clk_div
; yosys-smt2-wire clk_div 8
(define-fun |sys_ctrl_n clk_div| ((state |sys_ctrl_s|)) (_ BitVec 8) (|sys_ctrl#16| state))
; yosys-smt2-wire clk_gate_all_on 12
(define-fun |sys_ctrl_n clk_gate_all_on| ((state |sys_ctrl_s|)) (_ BitVec 12) #b111111111111)
(define-fun |sys_ctrl#17| ((state |sys_ctrl_s|)) (_ BitVec 1) (ite (= ((_ extract 0 0) (|sys_ctrl#14| state)) #b1) (|sys_ctrl#4| state) #b0)) ; \in_sleep
(define-fun |sys_ctrl#18| ((state |sys_ctrl_s|)) (_ BitVec 12) (ite (= ((_ extract 0 0) (|sys_ctrl#17| state)) #b1) #b000001001000 #b111111111111)) ; \clk_gate_en
; yosys-smt2-output clk_gate_en 12
; yosys-smt2-wire clk_gate_en 12
(define-fun |sys_ctrl_n clk_gate_en| ((state |sys_ctrl_s|)) (_ BitVec 12) (|sys_ctrl#18| state))
; yosys-smt2-wire clk_gate_sleep 12
(define-fun |sys_ctrl_n clk_gate_sleep| ((state |sys_ctrl_s|)) (_ BitVec 12) #b000001001000)
(declare-fun |sys_ctrl#19| (|sys_ctrl_s|) Bool) ; \clk_i
; yosys-smt2-input clk_i 1
; yosys-smt2-wire clk_i 1
; yosys-smt2-clock clk_i posedge
; yosys-smt2-witness {"offset": 0, "path": ["\\clk_i"], "smtname": "clk_i", "smtoffset": 0, "type": "posedge", "width": 1}
; yosys-smt2-witness {"offset": 0, "path": ["\\clk_i"], "smtname": "clk_i", "smtoffset": 0, "type": "input", "width": 1}
(define-fun |sys_ctrl_n clk_i| ((state |sys_ctrl_s|)) Bool (|sys_ctrl#19| state))
(declare-fun |sys_ctrl#20| (|sys_ctrl_s|) Bool) ; \core_sleep_i
; yosys-smt2-input core_sleep_i 1
; yosys-smt2-wire core_sleep_i 1
; yosys-smt2-witness {"offset": 0, "path": ["\\core_sleep_i"], "smtname": "core_sleep_i", "smtoffset": 0, "type": "input", "width": 1}
(define-fun |sys_ctrl_n core_sleep_i| ((state |sys_ctrl_s|)) Bool (|sys_ctrl#20| state))
(declare-fun |sys_ctrl#21| (|sys_ctrl_s|) Bool) ; \ext_rst_n
; yosys-smt2-input ext_rst_n 1
; yosys-smt2-wire ext_rst_n 1
; yosys-smt2-witness {"offset": 0, "path": ["\\ext_rst_n"], "smtname": "ext_rst_n", "smtoffset": 0, "type": "input", "width": 1}
(define-fun |sys_ctrl_n ext_rst_n| ((state |sys_ctrl_s|)) Bool (|sys_ctrl#21| state))
; yosys-smt2-wire in_sleep 1
(define-fun |sys_ctrl_n in_sleep| ((state |sys_ctrl_s|)) Bool (= ((_ extract 0 0) (|sys_ctrl#17| state)) #b1))
(declare-fun |sys_ctrl#22| (|sys_ctrl_s|) (_ BitVec 8)) ; \paddr
; yosys-smt2-input paddr 8
; yosys-smt2-wire paddr 8
; yosys-smt2-witness {"offset": 0, "path": ["\\paddr"], "smtname": "paddr", "smtoffset": 0, "type": "input", "width": 8}
(define-fun |sys_ctrl_n paddr| ((state |sys_ctrl_s|)) (_ BitVec 8) (|sys_ctrl#22| state))
; yosys-smt2-input penable 1
; yosys-smt2-wire penable 1
; yosys-smt2-witness {"offset": 0, "path": ["\\penable"], "smtname": "penable", "smtoffset": 0, "type": "input", "width": 1}
(define-fun |sys_ctrl_n penable| ((state |sys_ctrl_s|)) Bool (|sys_ctrl#8| state))
(define-fun |sys_ctrl#23| ((state |sys_ctrl_s|)) (_ BitVec 8) (ite (= ((_ extract 0 0) (|sys_ctrl#14| state)) #b1) (|sys_ctrl#2| state) #b00000000)) ; \sleep_ctrl
(define-fun |sys_ctrl#24| ((state |sys_ctrl_s|)) (_ BitVec 4) (ite (= ((_ extract 0 0) (|sys_ctrl#14| state)) #b1) (|sys_ctrl#3| state) #b0000)) ; \wake_source
(define-fun |sys_ctrl#25| ((state |sys_ctrl_s|)) (_ BitVec 3) (ite (= ((_ extract 0 0) (|sys_ctrl#14| state)) #b1) (|sys_ctrl#1| state) #b000)) ; \reset_cause
(define-fun |sys_ctrl#26| ((state |sys_ctrl_s|)) Bool (= (|sys_ctrl#22| state) #b00001100)) ; $procmux$101_CMP
(define-fun |sys_ctrl#27| ((state |sys_ctrl_s|)) Bool (= (|sys_ctrl#22| state) #b00001000)) ; $procmux$88_CMP
(define-fun |sys_ctrl#28| ((state |sys_ctrl_s|)) Bool (= (|sys_ctrl#22| state) #b00000100)) ; $procmux$134_CMP
(define-fun |sys_ctrl#29| ((state |sys_ctrl_s|)) Bool (not (or  (= ((_ extract 0 0) (|sys_ctrl#22| state)) #b1) (= ((_ extract 1 1) (|sys_ctrl#22| state)) #b1) (= ((_ extract 2 2) (|sys_ctrl#22| state)) #b1) (= ((_ extract 3 3) (|sys_ctrl#22| state)) #b1) (= ((_ extract 4 4) (|sys_ctrl#22| state)) #b1) (= ((_ extract 5 5) (|sys_ctrl#22| state)) #b1) (= ((_ extract 6 6) (|sys_ctrl#22| state)) #b1) (= ((_ extract 7 7) (|sys_ctrl#22| state)) #b1)))) ; $procmux$90_CMP
(define-fun |sys_ctrl#30| ((state |sys_ctrl_s|)) (_ BitVec 31) (ite (|sys_ctrl#29| state) #b1000001010100100100011101010101 (ite (|sys_ctrl#28| state) (concat #b00000000000000000000000 (|sys_ctrl#16| state)) (ite (|sys_ctrl#27| state) (concat #b0000000000000000000000000000 (|sys_ctrl#25| state)) (ite (|sys_ctrl#26| state) (concat #b0000000000000000000 (concat (|sys_ctrl#24| state) (concat #b0000 ((_ extract 3 0) (|sys_ctrl#23| state))))) #b0000000000000000000000000000000))))) ; $2\prdata[31:0]
(define-fun |sys_ctrl#31| ((state |sys_ctrl_s|)) (_ BitVec 31) (ite (|sys_ctrl#12| state) (|sys_ctrl#30| state) #b0000000000000000000000000000000)) ; \prdata [30:0]
; yosys-smt2-output prdata 32
; yosys-smt2-wire prdata 32
(define-fun |sys_ctrl_n prdata| ((state |sys_ctrl_s|)) (_ BitVec 32) (concat #b0 (|sys_ctrl#31| state)))
; yosys-smt2-output pready 1
; yosys-smt2-wire pready 1
(define-fun |sys_ctrl_n pready| ((state |sys_ctrl_s|)) Bool true)
; yosys-smt2-input psel 1
; yosys-smt2-wire psel 1
; yosys-smt2-witness {"offset": 0, "path": ["\\psel"], "smtname": "psel", "smtoffset": 0, "type": "input", "width": 1}
(define-fun |sys_ctrl_n psel| ((state |sys_ctrl_s|)) Bool (|sys_ctrl#7| state))
(declare-fun |sys_ctrl#32| (|sys_ctrl_s|) (_ BitVec 32)) ; \pwdata
; yosys-smt2-input pwdata 32
; yosys-smt2-wire pwdata 32
; yosys-smt2-witness {"offset": 0, "path": ["\\pwdata"], "smtname": "pwdata", "smtoffset": 0, "type": "input", "width": 32}
(define-fun |sys_ctrl_n pwdata| ((state |sys_ctrl_s|)) (_ BitVec 32) (|sys_ctrl#32| state))
; yosys-smt2-input pwrite 1
; yosys-smt2-wire pwrite 1
; yosys-smt2-witness {"offset": 0, "path": ["\\pwrite"], "smtname": "pwrite", "smtoffset": 0, "type": "input", "width": 1}
(define-fun |sys_ctrl_n pwrite| ((state |sys_ctrl_s|)) Bool (|sys_ctrl#10| state))
; yosys-smt2-wire reset_cause 3
(define-fun |sys_ctrl_n reset_cause| ((state |sys_ctrl_s|)) (_ BitVec 3) (|sys_ctrl#25| state))
; yosys-smt2-input rst_ni 1
; yosys-smt2-wire rst_ni 1
; yosys-smt2-witness {"offset": 0, "path": ["\\rst_ni"], "smtname": "rst_ni", "smtoffset": 0, "type": "input", "width": 1}
(define-fun |sys_ctrl_n rst_ni| ((state |sys_ctrl_s|)) Bool (= ((_ extract 0 0) (|sys_ctrl#14| state)) #b1))
(define-fun |sys_ctrl#33| ((state |sys_ctrl_s|)) (_ BitVec 1) (ite (= ((_ extract 0 0) (|sys_ctrl#14| state)) #b1) (|sys_ctrl#5| state) #b0)) ; \rst_ni_d
; yosys-smt2-wire rst_ni_d 1
(define-fun |sys_ctrl_n rst_ni_d| ((state |sys_ctrl_s|)) Bool (= ((_ extract 0 0) (|sys_ctrl#33| state)) #b1))
; yosys-smt2-wire sleep_ctrl 8
(define-fun |sys_ctrl_n sleep_ctrl| ((state |sys_ctrl_s|)) (_ BitVec 8) (|sys_ctrl#23| state))
(declare-fun |sys_ctrl#34| (|sys_ctrl_s|) (_ BitVec 2)) ; \wake_event_i
; yosys-smt2-input wake_event_i 2
; yosys-smt2-wire wake_event_i 2
; yosys-smt2-witness {"offset": 0, "path": ["\\wake_event_i"], "smtname": "wake_event_i", "smtoffset": 0, "type": "input", "width": 2}
(define-fun |sys_ctrl_n wake_event_i| ((state |sys_ctrl_s|)) (_ BitVec 2) (|sys_ctrl#34| state))
; yosys-smt2-wire wake_source 4
(define-fun |sys_ctrl_n wake_source| ((state |sys_ctrl_s|)) (_ BitVec 4) (|sys_ctrl#24| state))
(declare-fun |sys_ctrl#35| (|sys_ctrl_s|) Bool) ; \wdt_rst_n
; yosys-smt2-input wdt_rst_n 1
; yosys-smt2-wire wdt_rst_n 1
; yosys-smt2-witness {"offset": 0, "path": ["\\wdt_rst_n"], "smtname": "wdt_rst_n", "smtoffset": 0, "type": "input", "width": 1}
(define-fun |sys_ctrl_n wdt_rst_n| ((state |sys_ctrl_s|)) Bool (|sys_ctrl#35| state))
(define-fun |sys_ctrl#36| ((state |sys_ctrl_s|)) (_ BitVec 1) (bvnot (ite (|sys_ctrl#19| state) #b1 #b0))) ; $auto$rtlil.cc:3255:Not$217
; yosys-smt2-assume 0 $auto$formalff.cc:987:execute$218
(define-fun |sys_ctrl_u 0| ((state |sys_ctrl_s|)) Bool (or (= ((_ extract 0 0) (|sys_ctrl#36| state)) #b1) (not true))) ; $auto$formalff.cc:987:execute$218
(define-fun |sys_ctrl#37| ((state |sys_ctrl_s|)) Bool (not (or  (= ((_ extract 0 0) (|sys_ctrl#33| state)) #b1) false))) ; $logic_not$sys_ctrl.v:72$8_Y
(define-fun |sys_ctrl#38| ((state |sys_ctrl_s|)) Bool (and (or  (= ((_ extract 0 0) (|sys_ctrl#14| state)) #b1) false) (or  (|sys_ctrl#37| state) false))) ; $logic_and$sys_ctrl.v:72$9_Y
(define-fun |sys_ctrl#39| ((state |sys_ctrl_s|)) Bool (not (or  (= ((_ extract 0 0) (|sys_ctrl#15| state)) #b1) false))) ; $logic_not$sys_ctrl.v:72$10_Y
(define-fun |sys_ctrl#40| ((state |sys_ctrl_s|)) Bool (and (or  (|sys_ctrl#38| state) false) (or  (|sys_ctrl#39| state) false))) ; $logic_and$sys_ctrl.v:72$11_Y
(define-fun |sys_ctrl#41| ((state |sys_ctrl_s|)) (_ BitVec 1) (ite (|sys_ctrl#40| state) #b1 (|sys_ctrl#15| state))) ; $0\cause_captured[0:0]
(define-fun |sys_ctrl#42| ((state |sys_ctrl_s|)) (_ BitVec 1) (ite (= ((_ extract 0 0) (|sys_ctrl#14| state)) #b1) (|sys_ctrl#41| state) #b0)) ; $auto$rtlil.cc:3390:Mux$201
(define-fun |sys_ctrl#43| ((state |sys_ctrl_s|)) (_ BitVec 1) (ite (= ((_ extract 0 0) (|sys_ctrl#14| state)) #b1) (|sys_ctrl#14| state) #b0)) ; $auto$rtlil.cc:3390:Mux$203
(define-fun |sys_ctrl#44| ((state |sys_ctrl_s|)) Bool (or  (= ((_ extract 0 0) (|sys_ctrl#34| state)) #b1) (= ((_ extract 1 1) (|sys_ctrl#34| state)) #b1))) ; $reduce_or$sys_ctrl.v:96$20_Y
(define-fun |sys_ctrl#45| ((state |sys_ctrl_s|)) Bool (and (or  (= ((_ extract 0 0) (|sys_ctrl#17| state)) #b1) false) (or  (|sys_ctrl#44| state) false))) ; $logic_and$sys_ctrl.v:96$21_Y
(define-fun |sys_ctrl#46| ((state |sys_ctrl_s|)) (_ BitVec 1) (ite (|sys_ctrl#45| state) #b0 (|sys_ctrl#17| state))) ; $procmux$111_Y
(define-fun |sys_ctrl#47| ((state |sys_ctrl_s|)) Bool (and (or  (= ((_ extract 0 0) (|sys_ctrl#23| state)) #b1) false) (or  (|sys_ctrl#20| state) false))) ; $logic_and$sys_ctrl.v:94$17_Y
(define-fun |sys_ctrl#48| ((state |sys_ctrl_s|)) Bool (not (or  (= ((_ extract 0 0) (|sys_ctrl#17| state)) #b1) false))) ; $logic_not$sys_ctrl.v:94$18_Y
(define-fun |sys_ctrl#49| ((state |sys_ctrl_s|)) Bool (and (or  (|sys_ctrl#47| state) false) (or  (|sys_ctrl#48| state) false))) ; $logic_and$sys_ctrl.v:94$19_Y
(define-fun |sys_ctrl#50| ((state |sys_ctrl_s|)) (_ BitVec 1) (ite (|sys_ctrl#49| state) #b1 (|sys_ctrl#46| state))) ; $0\in_sleep[0:0]
(define-fun |sys_ctrl#51| ((state |sys_ctrl_s|)) (_ BitVec 1) (ite (= ((_ extract 0 0) (|sys_ctrl#14| state)) #b1) (|sys_ctrl#50| state) #b0)) ; $auto$rtlil.cc:3390:Mux$205
(define-fun |sys_ctrl#52| ((state |sys_ctrl_s|)) (_ BitVec 4) (ite (|sys_ctrl#45| state) (concat #b00 (|sys_ctrl#34| state)) (|sys_ctrl#24| state))) ; $procmux$116_Y
(define-fun |sys_ctrl#53| ((state |sys_ctrl_s|)) (_ BitVec 4) (ite (|sys_ctrl#49| state) (|sys_ctrl#24| state) (|sys_ctrl#52| state))) ; $0\wake_source[3:0]
(define-fun |sys_ctrl#54| ((state |sys_ctrl_s|)) (_ BitVec 4) (ite (= ((_ extract 0 0) (|sys_ctrl#14| state)) #b1) (|sys_ctrl#53| state) #b0000)) ; $auto$rtlil.cc:3390:Mux$207
(define-fun |sys_ctrl#55| ((state |sys_ctrl_s|)) (_ BitVec 1) (ite (|sys_ctrl#26| state) ((_ extract 0 0) (|sys_ctrl#32| state)) ((_ extract 0 0) (|sys_ctrl#23| state)))) ; $procmux$100_Y
(define-fun |sys_ctrl#56| ((state |sys_ctrl_s|)) (_ BitVec 1) (ite (|sys_ctrl#13| state) (|sys_ctrl#55| state) ((_ extract 0 0) (|sys_ctrl#23| state)))) ; $procmux$102_Y
(define-fun |sys_ctrl#57| ((state |sys_ctrl_s|)) (_ BitVec 1) (ite (|sys_ctrl#45| state) #b0 (|sys_ctrl#56| state))) ; $procmux$104_Y
(define-fun |sys_ctrl#58| ((state |sys_ctrl_s|)) (_ BitVec 1) (ite (|sys_ctrl#49| state) (|sys_ctrl#56| state) (|sys_ctrl#57| state))) ; $0\sleep_ctrl[7:0] [0]
(define-fun |sys_ctrl#59| ((state |sys_ctrl_s|)) (_ BitVec 7) (ite (|sys_ctrl#26| state) ((_ extract 7 1) (|sys_ctrl#32| state)) ((_ extract 7 1) (|sys_ctrl#23| state)))) ; $procmux$96_Y
(define-fun |sys_ctrl#60| ((state |sys_ctrl_s|)) (_ BitVec 7) (ite (|sys_ctrl#13| state) (|sys_ctrl#59| state) ((_ extract 7 1) (|sys_ctrl#23| state)))) ; $0\sleep_ctrl[7:0] [7:1]
(define-fun |sys_ctrl#61| ((state |sys_ctrl_s|)) (_ BitVec 8) (ite (= ((_ extract 0 0) (|sys_ctrl#14| state)) #b1) (concat (|sys_ctrl#60| state) (|sys_ctrl#58| state)) #b00000000)) ; $auto$rtlil.cc:3390:Mux$209
(define-fun |sys_ctrl#62| ((state |sys_ctrl_s|)) (_ BitVec 2) (ite (|sys_ctrl#35| state) #b00 #b10)) ; $auto$wreduce.cc:514:run$183 [1:0]
(define-fun |sys_ctrl#63| ((state |sys_ctrl_s|)) (_ BitVec 2) (ite (|sys_ctrl#21| state) (|sys_ctrl#62| state) #b01)) ; $auto$wreduce.cc:514:run$185 [1:0]
(define-fun |sys_ctrl#64| ((state |sys_ctrl_s|)) Bool (not (or  (|sys_ctrl#35| state) false))) ; $logic_not$sys_ctrl.v:74$12_Y
(define-fun |sys_ctrl#65| ((state |sys_ctrl_s|)) Bool (not (or  (|sys_ctrl#21| state) false))) ; $logic_not$sys_ctrl.v:74$13_Y
(define-fun |sys_ctrl#66| ((state |sys_ctrl_s|)) Bool (and (or  (|sys_ctrl#64| state) false) (or  (|sys_ctrl#65| state) false))) ; $logic_and$sys_ctrl.v:74$14_Y
(define-fun |sys_ctrl#67| ((state |sys_ctrl_s|)) (_ BitVec 2) (ite (|sys_ctrl#66| state) #b10 (|sys_ctrl#63| state))) ; $auto$wreduce.cc:514:run$184 [1:0]
(define-fun |sys_ctrl#68| ((state |sys_ctrl_s|)) (_ BitVec 3) (ite (|sys_ctrl#40| state) (concat #b0 (|sys_ctrl#67| state)) (|sys_ctrl#25| state))) ; $0\reset_cause[2:0]
(define-fun |sys_ctrl#69| ((state |sys_ctrl_s|)) (_ BitVec 3) (ite (= ((_ extract 0 0) (|sys_ctrl#14| state)) #b1) (|sys_ctrl#68| state) #b000)) ; $auto$rtlil.cc:3390:Mux$211
(define-fun |sys_ctrl#70| ((state |sys_ctrl_s|)) (_ BitVec 8) (ite (|sys_ctrl#28| state) ((_ extract 7 0) (|sys_ctrl#32| state)) (|sys_ctrl#16| state))) ; $procmux$133_Y
(define-fun |sys_ctrl#71| ((state |sys_ctrl_s|)) (_ BitVec 8) (ite (|sys_ctrl#13| state) (|sys_ctrl#70| state) (|sys_ctrl#16| state))) ; $0\clk_div[7:0]
(define-fun |sys_ctrl#72| ((state |sys_ctrl_s|)) (_ BitVec 8) (ite (= ((_ extract 0 0) (|sys_ctrl#14| state)) #b1) (|sys_ctrl#71| state) #b00000001)) ; $auto$rtlil.cc:3390:Mux$213
(define-fun |sys_ctrl_a| ((state |sys_ctrl_s|)) Bool true)
(define-fun |sys_ctrl_u| ((state |sys_ctrl_s|)) Bool 
  (|sys_ctrl_u 0| state)
)
(define-fun |sys_ctrl_i| ((state |sys_ctrl_s|)) Bool true)
(define-fun |sys_ctrl_h| ((state |sys_ctrl_s|)) Bool true)
(define-fun |sys_ctrl_t| ((state |sys_ctrl_s|) (next_state |sys_ctrl_s|)) Bool (and
  (= (|sys_ctrl#42| state) (|sys_ctrl#6| next_state)) ; $procdff$171 \_witness_.anyinit_procdff_171
  (= (|sys_ctrl#43| state) (|sys_ctrl#5| next_state)) ; $procdff$166 \_witness_.anyinit_procdff_166
  (= (|sys_ctrl#51| state) (|sys_ctrl#4| next_state)) ; $procdff$161 \_witness_.anyinit_procdff_161
  (= (|sys_ctrl#54| state) (|sys_ctrl#3| next_state)) ; $procdff$156 \_witness_.anyinit_procdff_156
  (= (|sys_ctrl#61| state) (|sys_ctrl#2| next_state)) ; $procdff$151 \_witness_.anyinit_procdff_151
  (= (|sys_ctrl#69| state) (|sys_ctrl#1| next_state)) ; $procdff$146 \_witness_.anyinit_procdff_146
  (= (|sys_ctrl#72| state) (|sys_ctrl#0| next_state)) ; $procdff$141 \_witness_.anyinit_procdff_141
)) ; end of module sys_ctrl
; yosys-smt2-topmod sys_ctrl
; end of yosys output
